140
89
44
77
70
2
128
52
68
15
64
23
67
7
44
77
75
26
51
29
118
92
84
36
43
96
44
104
64
67
133
75
137
134
44
45
92
25
79
58
72
114
11
36
52
15
11
114
59
44
140
72
63
95
62
31
4
88
1
75
119
105
31
101
52
87
104
110
133
57
45
128
28
115
134
14
10
89
51
79
111
99
17
109
46
19
105
4
68
126
98
32
124
30
79
104
59
4
16
92
